Minimize
  obj: x0 + x1 + x2 + x3 + x4 + x5 + x6 + x7 + x8

Subject To
  c0: x1 + x2 + x5 + x7 + x8 = 37
  c1: x1 + x3 + x4 + x6 + x7 + x8 = 38
  c2: x1 + x2 + x3 + x4 + x6 + x8 = 38
  c3: x0 + x2 + x3 + x8 = 26
  c4: x2 + x3 + x5 + x8 = 27
  c5: x1 + x2 + x3 + x4 + x6 + x8 = 38
  c6: x1 + x2 + x3 + x7 = 34
  c7: x0 + x1 + x4 + x5 = 14
  c8: x1 + x2 + x4 + x8 = 31

Bounds
  x0 >= 0
  x1 >= 0
  x2 >= 0
  x3 >= 0
  x4 >= 0
  x5 >= 0
  x6 >= 0
  x7 >= 0
  x8 >= 0

Generals
  x0 x1 x2 x3 x4 x5 x6 x7 x8

End
